p edge 22 34
e 1 3
e 1 7
e 1 9
e 1 11
e 1 13
e 1 15
e 1 16
e 1 19
e 2 3
e 2 7
e 2 14
e 2 21
e 3 5
e 3 7
e 3 8
e 3 11
e 3 14
e 3 21
e 3 22
e 4 6
e 4 12
e 5 8
e 6 11
e 6 12
e 7 9
e 7 16
e 7 21
e 8 10
e 8 17
e 10 12
e 10 17
e 13 19
e 17 20
e 18 22
